import	numpy
import	qm3
import  qm3.engines.orca
import  qm3.utils.eint
import  io
import  sys
import  os


cwd = os.path.abspath( os.path.dirname( sys.argv[0] ) ) + os.sep


mol = qm3.molecule()
mol.pdb_read( open( cwd + "charmm.pdb" ) )
mol.psf_read( open( cwd + "charmm.psf" ) )
mol.guess_atomic_numbers()

sqm = mol.resn == "WAT"
for a in [ "C6", "C9", "H11", "H12", "H13", "H14", "H15" ]:
    sqm[mol.indx["A"][1][a]] = True
sqm = numpy.logical_not( sqm )
smm = mol.sph_sel( sqm, 12 )
sla = [ ( mol.indx["A"][1]["C10"], mol.indx["A"][1]["C6"], [ mol.indx["A"][1]["H11"], mol.indx["A"][1]["H12"] ] ) ]

f = io.StringIO( """%pal nprocs 4 end
%plots
dim1 200
dim2 200
dim3 200
Format Gaussian_Cube
ElDens("orca.cube");
end
qm3_charges
! qm3_job rks b3lyp def2-svp
*xyz 1 1
qm3_atoms
*
""" )
mol.engines["qm"] = qm3.engines.orca.run( mol, f, sqm, smm, sla )
mol.engines["qm"].exe = "./orca/orca orca.inp > orca.out"

mol.get_func()

smm[sqm] = False
chg = mol.chrg.copy()
for i,j,k in sla:
    smm[j] = False
    for l in k:
        chg[l] += mol.chrg[j] / len( k )

rho = qm3.utils.eint.read_rho_cube( open( "orca.cube", "rt" ), +1, False )
print( "rho x mm_chrg:", qm3.utils.eint.calc_rho_eint( rho, mol.coor[smm], chg[smm] ) )
