import	numpy
import	qm3
import  qm3.engines.dftb
import	qm3.utils.eint
import  io
import  os
import  sys

 
cwd = os.path.abspath( os.path.dirname( sys.argv[0] ) ) + os.sep

mol = qm3.molecule()
mol.pdb_read( open( cwd + "charmm.pdb" ) )
mol.psf_read( open( cwd + "charmm.psf" ) )
mol.guess_atomic_numbers()

sqm = mol.resn == "WAT"
for a in [ "C6", "C9", "H11", "H12", "H13", "H14", "H15" ]:
    sqm[mol.indx["A"][1][a]] = True
sqm = numpy.logical_not( sqm )
smm = mol.sph_sel( sqm, 12 )
sla = [ ( mol.indx["A"][1]["C10"], mol.indx["A"][1]["C6"], [ mol.indx["A"][1]["H11"], mol.indx["A"][1]["H12"] ] ) ]
print( sqm.sum(), smm.sum() )

f = io.StringIO( """
Driver = {}
Geometry = GenFormat {
qm3_atoms
}
Hamiltonian = DFTB {
  SCC = Yes
  ConvergentSccOnly = Yes
  MaxSCCIterations = 1000
  Mixer = DIIS {}
  SlaterKosterFiles = Type2FileNames {
    Prefix = "%s/3ob-3-1/"
    Separator = "-"
    Suffix = ".skf"
  }
  MaxAngularMomentum { H = "s"; C = "p"; N = "p" }
  Charge = 1
  ThirdOrderFull = Yes
  HubbardDerivs = { 
    H = -0.1857
    C = -0.1492
    N = -0.1535
  }
  HCorrection = Damping { Exponent = 4.0 }
qm3_guess
  ElectricField = {
    PointCharges = {
      CoordsAndCharges [Angstrom] = DirectRead {
        Records = qm3_nchg
        File = "charges.dat"
      }
    }
  }
}
Options {
  WriteDetailedOut = No
  WriteDetailedXML = Yes
}
Analysis {
  WriteEigenvectors = Yes
  MullikenAnalysis = Yes
  WriteBandOut = No
qm3_job
}
ParserOptions { WriteHSDInput = No }
"""%( cwd ) )

mol.engines["qm"] = qm3.engines.dftb.run( mol, f, sqm, smm, sla )
mol.get_func()

os.system( "dftb+ > /dev/null" )

with open( "waveplot_in.hsd", "wt" ) as f:
    f.write( """Options {
  TotalChargeDensity = Yes
  PlottedSpins = -1
  PlottedLevels = -1
  PlottedRegion =  OptimalCuboid {}
  NrOfPoints = 100 100 100
}

DetailedXml = "detailed.xml"
EigenvecBin = "eigenvec.bin"

Basis {
  Resolution = 0.01
  <<+ "./wfc.hsd"
}
""" )
os.system( "waveplot > /dev/null" )

smm[sqm] = False
chg = mol.chrg.copy()
for i,j,k in sla:
    smm[j] = False
    for l in k:
        chg[l] += mol.chrg[j] / len( k )

rho = qm3.utils.eint.read_rho_cube( open( "wp-abs2.cube", "rt" ), +1, True )
print( "rho x mm_chrg:", qm3.utils.eint.calc_rho_eint( rho, mol.coor[smm], chg[smm] ) )
